RT is False
Default write of storage_offers_DA.csv just to have a file (but constraint should be inactive)
Reading model...
...model read.
creating competitive generators file...
...competitive generators recorded.
Loading data...
.. day-ahead data with real-time VRE data read.
Compiling instance...
...instance created.
Creating Offer Mitigation (model will solve as dispatch if TRUE)...
NOTE: storage offers will not be mitigated
...storage offer mitigation file created
Converting model to MPEC...
...converted
NOTE: initial MIP solve with only storage competitive to get feasible solution
Solving...

Welcome to IBM(R) ILOG(R) CPLEX(R) Interactive Optimizer 12.9.0.0
  with Simplex, Mixed Integer & Barrier Optimizers
5725-A06 5725-A29 5724-Y48 5724-Y49 5724-Y54 5724-Y55 5655-Y21
Copyright IBM Corp. 1988, 2019.  All Rights Reserved.

Type 'help' for a list of available commands.
Type 'help' followed by a command name for more
information on commands.

CPLEX> Logfile 'cplex.log' closed.
Logfile 'C:\Users\llavin\Desktop\test826\logs\tmpvs15gb8g.cplex.log' open.
CPLEX> New value for parallel optimization mode: -1
CPLEX> New value for emphasis for MIP optimization: 1
CPLEX> New value for mixed integer optimality gap tolerance: 0.01
CPLEX> New value for integrality tolerance: 1e-12
CPLEX> New value for deterministic time limit in ticks: 75000
CPLEX> Problem 'C:\Users\llavin\Desktop\test826\logs\tmpnsdotbr0.pyomo.lp' read.
Read time = 0.25 sec. (13.92 ticks)
CPLEX> Problem name         : C:\Users\llavin\Desktop\test826\logs\tmpnsdotbr0.pyomo.lp
Objective sense      : Maximize
Variables            :   53809  [Nneg: 1,  Box: 22004,  Free: 4464,
                                 Binary: 27340]
Objective nonzeros   :    9022
Linear constraints   :  123253  [Less: 41346,  Greater: 59096,  Equal: 22811]
  Nonzeros           :  293210
  RHS nonzeros       :   67484

Variables            : Min LB: -5000.000        Max UB: 1000000.       
Objective nonzeros   : Min   : 0.008333333      Max   : 2500.000       
Linear constraints   :
  Nonzeros           : Min   : 0.008333333      Max   : 1000000.       
  RHS nonzeros       : Min   : 0.008333333      Max   : 1000000.       
CPLEX> CPXPARAM_Parallel                                -1
CPXPARAM_Emphasis_MIP                            1
CPXPARAM_DetTimeLimit                            75000
CPXPARAM_MIP_Tolerances_MIPGap                   0.01
CPXPARAM_MIP_Tolerances_Integrality              9.9999999999999998e-13
Tried aggregator 4 times.
MIP Presolve eliminated 88743 rows and 19043 columns.
MIP Presolve added 3368 rows and 0 columns.
MIP Presolve modified 24835 coefficients.
Aggregator did 12999 substitutions.
Reduced MIP has 24879 rows, 21208 columns, and 71603 nonzeros.
Reduced MIP has 8388 binaries, 0 generals, 0 SOSs, and 0 indicators.
Presolve time = 0.33 sec. (192.65 ticks)
Probing fixed 399 vars, tightened 4007 bounds.
Probing time = 0.06 sec. (18.82 ticks)
Tried aggregator 2 times.
MIP Presolve eliminated 909 rows and 811 columns.
MIP Presolve modified 3025 coefficients.
Aggregator did 24 substitutions.
Reduced MIP has 23946 rows, 20373 columns, and 68897 nonzeros.
Reduced MIP has 7983 binaries, 0 generals, 0 SOSs, and 0 indicators.
Presolve time = 0.11 sec. (89.26 ticks)
Probing fixed 0 vars, tightened 224 bounds.
Probing time = 0.13 sec. (22.21 ticks)
Clique table members: 44425.
MIP emphasis: integer feasibility.
MIP search method: dynamic search.
Parallel mode: opportunistic, using up to 32 threads.
Root relaxation solution time = 0.38 sec. (541.39 ticks)

        Nodes                                         Cuts/
   Node  Left     Objective  IInf  Best Integer    Best Bound    ItCnt     Gap

      0     0        0.0000    52                      0.0000     4808         
*     0+    0                            0.0000        0.0000             0.00%
*     0+    0                            0.0000        0.0000             0.00%
      0     0        cutoff              0.0000        0.0000     4808    0.00%
Elapsed time = 1.50 sec. (1157.14 ticks, tree = 0.01 MB, solutions = 1)

Root node processing (before b&c):
  Real time             =    1.52 sec. (1158.98 ticks)
Parallel b&c, 32 threads:
  Real time             =    0.00 sec. (0.00 ticks)
  Sync time (average)   =    0.00 sec.
  Wait time (average)   =    0.00 sec.
                          ------------
Total (root+branch&cut) =    1.52 sec. (1158.98 ticks)

Solution pool: 1 solution saved.

MIP - Integer optimal solution:  Objective =  8.5489318594e-10
Solution time =    1.53 sec.  Iterations = 4808  Nodes = 0
Deterministic time = 1159.13 ticks  (756.61 ticks/sec)

CPLEX> Incumbent solution written to file 'C:\Users\llavin\Desktop\test826\logs\tmpxklci0db.cplex.sol'.
CPLEX> NOTE: no warmstart specified for MIP iteration, default behavior is true
NOTE: resolving with all competitive generators using storage-only solution to warmstart
Solving...

Welcome to IBM(R) ILOG(R) CPLEX(R) Interactive Optimizer 12.9.0.0
  with Simplex, Mixed Integer & Barrier Optimizers
5725-A06 5725-A29 5724-Y48 5724-Y49 5724-Y54 5724-Y55 5655-Y21
Copyright IBM Corp. 1988, 2019.  All Rights Reserved.

Type 'help' for a list of available commands.
Type 'help' followed by a command name for more
information on commands.

CPLEX> Logfile 'cplex.log' closed.
Logfile 'C:\Users\llavin\Desktop\test826\logs\tmppb7beghu.cplex.log' open.
CPLEX> New value for parallel optimization mode: -1
CPLEX> New value for emphasis for MIP optimization: 1
CPLEX> New value for mixed integer optimality gap tolerance: 0.01
CPLEX> New value for integrality tolerance: 1e-12
CPLEX> New value for deterministic time limit in ticks: 75000
CPLEX> Problem 'C:\Users\llavin\Desktop\test826\logs\tmpejul9ais.pyomo.lp' read.
Read time = 0.23 sec. (13.94 ticks)
CPLEX> MIP start file 'C:\Users\llavin\Desktop\test826\logs\tmp1p7zxfaw.cplex.mst' read.
CPLEX> Problem name         : C:\Users\llavin\Desktop\test826\logs\tmpejul9ais.pyomo.lp
Objective sense      : Maximize
Variables            :   54529  [Nneg: 1,  Box: 22724,  Free: 4464,
                                 Binary: 27340]
Objective nonzeros   :    9718
Linear constraints   :  123253  [Less: 41346,  Greater: 59096,  Equal: 22811]
  Nonzeros           :  293210
  RHS nonzeros       :   67484

Variables            : Min LB: -5000.000        Max UB: 1000000.       
Objective nonzeros   : Min   : 0.008333333      Max   : 2500.000       
Linear constraints   :
  Nonzeros           : Min   : 0.008333333      Max   : 1000000.       
  RHS nonzeros       : Min   : 0.008333333      Max   : 1000000.       
CPLEX> CPXPARAM_Parallel                                -1
CPXPARAM_Emphasis_MIP                            1
CPXPARAM_DetTimeLimit                            75000
CPXPARAM_MIP_Tolerances_MIPGap                   0.01
CPXPARAM_MIP_Tolerances_Integrality              9.9999999999999998e-13
Warning:  No solution found from 1 MIP starts.
Retaining values of one MIP start for possible repair.
Tried aggregator 4 times.
MIP Presolve eliminated 88743 rows and 19763 columns.
MIP Presolve added 3368 rows and 0 columns.
MIP Presolve modified 24835 coefficients.
Aggregator did 12999 substitutions.
Reduced MIP has 24879 rows, 21208 columns, and 71603 nonzeros.
Reduced MIP has 8388 binaries, 0 generals, 0 SOSs, and 0 indicators.
Presolve time = 0.33 sec. (193.06 ticks)
Probing fixed 399 vars, tightened 4007 bounds.
Probing time = 0.06 sec. (18.82 ticks)
Tried aggregator 2 times.
MIP Presolve eliminated 909 rows and 811 columns.
MIP Presolve modified 3025 coefficients.
Aggregator did 24 substitutions.
Reduced MIP has 23946 rows, 20373 columns, and 68897 nonzeros.
Reduced MIP has 7983 binaries, 0 generals, 0 SOSs, and 0 indicators.
Presolve time = 0.11 sec. (89.26 ticks)
Probing fixed 0 vars, tightened 224 bounds.
Probing time = 0.14 sec. (22.21 ticks)
Clique table members: 44425.
MIP emphasis: integer feasibility.
MIP search method: dynamic search.
Parallel mode: opportunistic, using up to 32 threads.
Root relaxation solution time = 0.50 sec. (671.20 ticks)

        Nodes                                         Cuts/
   Node  Left     Objective  IInf  Best Integer    Best Bound    ItCnt     Gap

      0     0    71326.2755   299                  71326.2755     5627         
*     0+    0                           -0.0000    71326.2755              --- 
      0     0    66817.4666   194       -0.0000      Cuts: 80     5723     --- 
      0     0    66810.9546   201       -0.0000     Cuts: 251     5889     --- 
*     0+    0                            0.0001    66810.9546              --- 
      0     0    66810.9546   195        0.0001     Cuts: 257     6008     --- 
*     0+    0                            0.0001    66810.9546              --- 
Repair heuristic found nothing.
      0     8    infeasible              0.0001      Cuts: 10     6283     --- 
Elapsed time = 4.44 sec. (2141.42 ticks, tree = 0.02 MB, solutions = 3)
    505    84    53810.3670   135        0.0001    57087.3184     7644     --- 
   1327   491    43472.1280   107        0.0001    57087.3184    12326     --- 
   2286   941    28295.3829    57        0.0001    57087.3184    15262     --- 
   2948  2171        cutoff              0.0001    57087.3184    24453     --- 
   3482  2277        cutoff              0.0001    57087.3184    28918     --- 
   4054  2321      974.7780    25        0.0001    57087.3184    30384     --- 
   4670  2687    infeasible              0.0001    57087.3184    45827     --- 
   5300  2995     8783.0232    43        0.0001    57087.3184    59277     --- 
   5942  3183    25488.9748   108        0.0001    57087.3184    68120     --- 
   8171  3615        cutoff              0.0001    57087.3184   103356     --- 
Elapsed time = 21.17 sec. (5243.88 ticks, tree = 24.57 MB, solutions = 3)
   8415  3820        cutoff              0.0001    21376.9540   145612     --- 
  10349   276      198.5292    10        0.0001    20021.3138   161143     --- 
  11419   173     1158.8913    15        0.0001     9164.6072   169424     --- 

Cover cuts applied:  1
Implied bound cuts applied:  27
Flow cuts applied:  56
Mixed integer rounding cuts applied:  18
Lift and project cuts applied:  3
Gomory fractional cuts applied:  10

Root node processing (before b&c):
  Real time             =    3.06 sec. (2131.61 ticks)
Parallel b&c, 32 threads:
  Real time             =   32.36 sec. (9130.69 ticks)
  Sync time (average)   =    2.41 sec.
  Wait time (average)   =    0.22 sec.
                          ------------
Total (root+branch&cut) =   35.42 sec. (11262.30 ticks)

Solution pool: 3 solutions saved.

MIP - Integer optimal solution:  Objective =  5.5368498816e-05
Solution time =   35.44 sec.  Iterations = 183429  Nodes = 12008
Deterministic time = 11262.45 ticks  (317.81 ticks/sec)

CPLEX> Incumbent solution written to file 'C:\Users\llavin\Desktop\test826\logs\tmpzak31l9l.cplex.sol'.
CPLEX> Exporting results... 
